617883.0
991
0 1 3 5 6 7 8 9 10 12 13 16 17 19 20 21 22 25 27 28 29 31 32 34 35 36 37 39 40 42 44 45 46 47 48 50 51 52 53 54 55 57 59 61 62 63 64 65 66 67 68 71 74 76 77 79 80 81 86 87 88 89 90 91 94 97 98 